50
4238 7201 1085 10829 9222 10991 3634 2995 1548 2939 1242 7918 4657 9156 8607 4494 2668 4477 1303 7484 2898 2488 9885 5371 10461 10803 7640 3498 2478 3466 8367 6119 3980 1175 4511 4928 1694 3495 3955 5160 5940 6657 9496 3950 1949 4032 3161 6757 5763 4211 
3238 6201 85 9829 8222 9991 2634 1995 548 1939 242 6918 3657 8156 7607 3494 1668 3477 303 6484 1898 1488 8885 4371 9461 9803 6640 2498 1478 2466 7367 5119 2980 175 3511 3928 694 2495 2955 4160 4940 5657 8496 2950 949 3032 2161 5757 4763 3211 
129196
